5,5	0,0	8,8	10,1	0,0	0,0	0,0	0,0	0,0	19,5
8,2	11,4	0,0	13,7	7,0	0,0	0,0	8,9	0,0	0,0
0,0	0,0	10,5	0,0	11,2	19,5	0,0	0,0	9,1	0,0
6,8	0,0	19,6	0,0	0,0	0,0	5,4	0,0	0,0	0,0
0,0	12,1	0,0	9,9	5,9	0,0	0,0	9,0	0,0	0,0
0,0	16,3	12,8	0,0	11,2	5,5	0,0	0,0	13,6	0,0
0,0	13,0	0,0	11,7	0,0	0,0	16,2	0,0	0,0	15,5
9,8	0,0	14,6	0,0	0,0	0,0	0,0	0,0	0,0	9,1
0,0	7,3	0,0	15,6	11,2	0,0	0,0	8,5	0,0	0,0
0,0	0,0	9,4	0,0	0,0	13,8	16,0	0,0	0,0	18,9
									
4,1	3,2	2,8	3,6	2,8	4,3	3,6	3,6	3,0	3,4
